
Gurobi 7.0.2 (linux64, Python) logging started Fri Jul 28 22:51:58 2017

Optimize a model with 3 rows, 3 columns and 3 nonzeros
Coefficient statistics:
  Matrix range     [1e+00, 1e+00]
  Objective range  [1e+00, 1e+00]
  Bounds range     [0e+00, 0e+00]
  RHS range        [2e+00, 2e+00]
Presolve removed 3 rows and 3 columns
Presolve time: 0.00s
Presolve: All rows and columns removed
Iteration    Objective       Primal Inf.    Dual Inf.      Time
       0    4.0000000e+00   0.000000e+00   0.000000e+00      0s

Solved in 0 iterations and 0.00 seconds
Optimal objective  4.000000000e+00

Gurobi 7.0.2 (linux64, Python) logging started Mon Jul 31 11:17:37 2017

Optimize a model with 3 rows, 3 columns and 3 nonzeros
Coefficient statistics:
  Matrix range     [1e+00, 1e+00]
  Objective range  [1e+00, 1e+00]
  Bounds range     [0e+00, 0e+00]
  RHS range        [2e+00, 2e+00]
Presolve removed 3 rows and 3 columns
Presolve time: 0.00s
Presolve: All rows and columns removed
Iteration    Objective       Primal Inf.    Dual Inf.      Time
       0    4.0000000e+00   0.000000e+00   0.000000e+00      0s

Solved in 0 iterations and 0.00 seconds
Optimal objective  4.000000000e+00

Gurobi 7.0.2 (linux64, Python) logging started Mon Jul 31 11:32:36 2017

Optimize a model with 3 rows, 3 columns and 3 nonzeros
Coefficient statistics:
  Matrix range     [1e+00, 1e+00]
  Objective range  [1e+00, 1e+00]
  Bounds range     [0e+00, 0e+00]
  RHS range        [2e+00, 2e+00]
Presolve removed 3 rows and 3 columns
Presolve time: 0.00s
Presolve: All rows and columns removed
Iteration    Objective       Primal Inf.    Dual Inf.      Time
       0    4.0000000e+00   0.000000e+00   0.000000e+00      0s

Solved in 0 iterations and 0.00 seconds
Optimal objective  4.000000000e+00

Gurobi 7.0.2 (linux64, Python) logging started Mon Jul 31 13:50:17 2017


Gurobi 7.0.2 (linux64, Python) logging started Mon Jul 31 13:59:04 2017


Gurobi 7.0.2 (linux64, Python) logging started Mon Jul 31 13:59:08 2017


Gurobi 7.0.2 (linux64, Python) logging started Mon Jul 31 13:59:16 2017


Gurobi 7.0.2 (linux64, Python) logging started Mon Jul 31 14:39:28 2017


Gurobi 7.0.2 (linux64, Python) logging started Mon Jul 31 14:40:25 2017


Gurobi 7.0.2 (linux64, Python) logging started Mon Jul 31 14:41:41 2017


Gurobi 7.0.2 (linux64, Python) logging started Mon Jul 31 14:44:15 2017


Gurobi 7.0.2 (linux64, Python) logging started Mon Jul 31 14:45:23 2017

Optimize a model with 3 rows, 3 columns and 3 nonzeros
Coefficient statistics:
  Matrix range     [1e+00, 1e+00]
  Objective range  [1e+00, 1e+00]
  Bounds range     [0e+00, 0e+00]
  RHS range        [2e+00, 2e+00]
Presolve removed 3 rows and 3 columns
Presolve time: 0.00s
Presolve: All rows and columns removed
Iteration    Objective       Primal Inf.    Dual Inf.      Time
       0    4.0000000e+00   0.000000e+00   0.000000e+00      0s

Solved in 0 iterations and 0.00 seconds
Optimal objective  4.000000000e+00

Gurobi 7.0.2 (linux64, Python) logging started Mon Jul 31 14:54:20 2017


Gurobi 7.0.2 (linux64, Python) logging started Mon Jul 31 14:54:51 2017


Gurobi 7.0.2 (linux64, Python) logging started Mon Jul 31 15:27:58 2017

Optimize a model with 3 rows, 3 columns and 3 nonzeros
Coefficient statistics:
  Matrix range     [1e+00, 1e+00]
  Objective range  [1e+00, 1e+00]
  Bounds range     [0e+00, 0e+00]
  RHS range        [2e+00, 2e+00]
Presolve removed 3 rows and 3 columns
Presolve time: 0.00s
Presolve: All rows and columns removed
Iteration    Objective       Primal Inf.    Dual Inf.      Time
       0    4.0000000e+00   0.000000e+00   0.000000e+00      0s

Solved in 0 iterations and 0.00 seconds
Optimal objective  4.000000000e+00

Gurobi 7.0.2 (linux64, Python) logging started Mon Jul 31 18:10:58 2017

Optimize a model with 3 rows, 3 columns and 3 nonzeros
Coefficient statistics:
  Matrix range     [1e+00, 1e+00]
  Objective range  [1e+00, 1e+00]
  Bounds range     [0e+00, 0e+00]
  RHS range        [2e+00, 2e+00]
Presolve removed 3 rows and 3 columns
Presolve time: 0.00s
Presolve: All rows and columns removed
Iteration    Objective       Primal Inf.    Dual Inf.      Time
       0    4.0000000e+00   0.000000e+00   0.000000e+00      0s

Solved in 0 iterations and 0.00 seconds
Optimal objective  4.000000000e+00

Gurobi 7.0.2 (linux64, Python) logging started Tue Aug  1 15:10:09 2017

Optimize a model with 3 rows, 3 columns and 3 nonzeros
Coefficient statistics:
  Matrix range     [1e+00, 1e+00]
  Objective range  [1e+00, 1e+00]
  Bounds range     [0e+00, 0e+00]
  RHS range        [2e+00, 2e+00]
Presolve removed 3 rows and 3 columns
Presolve time: 0.00s
Presolve: All rows and columns removed
Iteration    Objective       Primal Inf.    Dual Inf.      Time
       0    4.0000000e+00   0.000000e+00   0.000000e+00      0s

Solved in 0 iterations and 0.00 seconds
Optimal objective  4.000000000e+00

Gurobi 7.0.2 (linux64, Python) logging started Tue Aug  1 20:08:28 2017

Optimize a model with 3 rows, 3 columns and 3 nonzeros
Coefficient statistics:
  Matrix range     [1e+00, 1e+00]
  Objective range  [1e+00, 1e+00]
  Bounds range     [0e+00, 0e+00]
  RHS range        [2e+00, 2e+00]
Presolve removed 3 rows and 3 columns
Presolve time: 0.00s
Presolve: All rows and columns removed
Iteration    Objective       Primal Inf.    Dual Inf.      Time
       0    4.0000000e+00   0.000000e+00   0.000000e+00      0s

Solved in 0 iterations and 0.00 seconds
Optimal objective  4.000000000e+00

Gurobi 7.0.2 (linux64, Python) logging started Wed Aug  2 00:17:19 2017

Optimize a model with 3 rows, 3 columns and 3 nonzeros
Coefficient statistics:
  Matrix range     [1e+00, 1e+00]
  Objective range  [1e+00, 1e+00]
  Bounds range     [0e+00, 0e+00]
  RHS range        [2e+00, 2e+00]
Presolve removed 3 rows and 3 columns
Presolve time: 0.00s
Presolve: All rows and columns removed
Iteration    Objective       Primal Inf.    Dual Inf.      Time
       0    4.0000000e+00   0.000000e+00   0.000000e+00      0s

Solved in 0 iterations and 0.00 seconds
Optimal objective  4.000000000e+00

Gurobi 7.0.2 (linux64, Python) logging started Wed Aug  2 00:30:17 2017

Optimize a model with 3 rows, 3 columns and 3 nonzeros
Coefficient statistics:
  Matrix range     [1e+00, 1e+00]
  Objective range  [1e+00, 1e+00]
  Bounds range     [0e+00, 0e+00]
  RHS range        [2e+00, 2e+00]
Presolve removed 3 rows and 3 columns
Presolve time: 0.00s
Presolve: All rows and columns removed
Iteration    Objective       Primal Inf.    Dual Inf.      Time
       0    4.0000000e+00   0.000000e+00   0.000000e+00      0s

Solved in 0 iterations and 0.00 seconds
Optimal objective  4.000000000e+00

Gurobi 7.0.2 (linux64, Python) logging started Wed Aug  2 00:34:42 2017

Optimize a model with 3 rows, 3 columns and 3 nonzeros
Coefficient statistics:
  Matrix range     [1e+00, 1e+00]
  Objective range  [1e+00, 1e+00]
  Bounds range     [0e+00, 0e+00]
  RHS range        [2e+00, 2e+00]
Presolve removed 3 rows and 3 columns
Presolve time: 0.00s
Presolve: All rows and columns removed
Iteration    Objective       Primal Inf.    Dual Inf.      Time
       0    4.0000000e+00   0.000000e+00   0.000000e+00      0s

Solved in 0 iterations and 0.00 seconds
Optimal objective  4.000000000e+00

Gurobi 7.0.2 (linux64, Python) logging started Wed Aug  2 00:37:57 2017

Optimize a model with 3 rows, 3 columns and 3 nonzeros
Coefficient statistics:
  Matrix range     [1e+00, 1e+00]
  Objective range  [1e+00, 1e+00]
  Bounds range     [0e+00, 0e+00]
  RHS range        [2e+00, 2e+00]
Presolve removed 3 rows and 3 columns
Presolve time: 0.00s
Presolve: All rows and columns removed
Iteration    Objective       Primal Inf.    Dual Inf.      Time
       0    4.0000000e+00   0.000000e+00   0.000000e+00      0s

Solved in 0 iterations and 0.00 seconds
Optimal objective  4.000000000e+00

Gurobi 7.0.2 (linux64, Python) logging started Mon Aug  7 21:06:59 2017


Gurobi 7.0.2 (linux64, Python) logging started Mon Aug  7 23:46:11 2017


Gurobi 7.0.2 (linux64, Python) logging started Tue Aug  8 20:18:15 2017

Optimize a model with 3 rows, 3 columns and 3 nonzeros
Coefficient statistics:
  Matrix range     [1e+00, 1e+00]
  Objective range  [1e+00, 1e+00]
  Bounds range     [0e+00, 0e+00]
  RHS range        [2e+00, 2e+00]
Presolve removed 3 rows and 3 columns
Presolve time: 0.00s
Presolve: All rows and columns removed
Iteration    Objective       Primal Inf.    Dual Inf.      Time
       0    4.0000000e+00   0.000000e+00   0.000000e+00      0s

Solved in 0 iterations and 0.00 seconds
Optimal objective  4.000000000e+00

Gurobi 7.0.2 (linux64, Python) logging started Tue Aug  8 20:29:24 2017

Optimize a model with 3 rows, 3 columns and 3 nonzeros
Coefficient statistics:
  Matrix range     [1e+00, 1e+00]
  Objective range  [1e+00, 1e+00]
  Bounds range     [0e+00, 0e+00]
  RHS range        [2e+00, 2e+00]
Presolve removed 3 rows and 3 columns
Presolve time: 0.00s
Presolve: All rows and columns removed
Iteration    Objective       Primal Inf.    Dual Inf.      Time
       0    4.0000000e+00   0.000000e+00   0.000000e+00      0s

Solved in 0 iterations and 0.00 seconds
Optimal objective  4.000000000e+00

Gurobi 7.0.2 (linux64, Python) logging started Tue Aug  8 20:34:17 2017

Optimize a model with 3 rows, 3 columns and 3 nonzeros
Coefficient statistics:
  Matrix range     [1e+00, 1e+00]
  Objective range  [1e+00, 1e+00]
  Bounds range     [0e+00, 0e+00]
  RHS range        [2e+00, 2e+00]
Presolve removed 3 rows and 3 columns
Presolve time: 0.00s
Presolve: All rows and columns removed
Iteration    Objective       Primal Inf.    Dual Inf.      Time
       0    4.0000000e+00   0.000000e+00   0.000000e+00      0s

Solved in 0 iterations and 0.00 seconds
Optimal objective  4.000000000e+00
